NAME : XML100_3265_17
DIMENSION : 101
NB_CLUSTERS : 3
CLUSTERING_ALG : KMeans
CLUSTERING_PARAMS : k(2)
CLUSTERS
1 0
2 4 7 9 12 13 15 18 21 24 29 30 34 36 37 38 41 42 43 45 48 52 54 57 58 63 64 67 72 77 79 80 81 84 87 89 90 93 94 98
3 1 2 3 5 6 8 10 11 14 16 17 19 20 22 23 25 26 27 28 31 32 33 35 39 40 44 46 47 49 50 51 53 55 56 59 60 61 62 65 66 68 69 70 71 73 74 75 76 78 82 83 85 86 88 91 92 95 96 97 99 100
EOF